NAME: ACTUAL_TOURS/amz1154
TYPE: TOUR
COMMENT: RouteID_7acf84b2-6870-4764-bcda-34f5a7760006
DIMENSION: 137
TOUR_SECTION
31
103
33
26
19
49
122
96
137
114
54
85
101
88
28
133
106
56
25
35
43
125
21
47
46
58
77
127
86
9
79
64
50
17
6
14
87
89
60
70
22
45
61
94
32
98
27
69
116
7
62
24
67
113
91
13
8
39
107
97
30
111
75
74
37
59
53
95
131
129
68
63
134
10
90
108
40
20
124
11
2
121
110
48
65
93
102
66
34
123
135
115
100
136
4
5
120
109
76
72
71
15
51
126
57
83
78
55
16
118
132
92
3
119
130
1
38
36
42
29
81
128
105
44
99
104
82
23
12
18
52
84
112
41
117
80
73
-1
EOF
